NAME : pr439.tsp.opt.tour
COMMENT : 
TYPE : TOUR
DIMENSION : 439
TOUR SECTION
367
366
365
333
334
335
336
337
338
339
360
361
362
363
364
369
370
359
358
356
355
357
293
292
291
290
289
288
352
354
353
351
350
349
347
348
346
345
376
377
379
380
390
389
419
420
421
414
406
407
413
412
423
422
432
433
430
427
424
426
425
410
411
409
408
403
434
438
437
436
435
439
284
344
343
342
341
373
371
372
383
382
384
394
395
393
397
396
398
399
392
391
381
375
374
340
287
286
285
280
232
231
225
189
188
187
230
281
282
229
283
228
227
226
186
149
85
84
83
51
50
52
2
3
1
4
5
6
7
8
9
10
11
12
13
14
15
16
17
33
34
35
36
37
38
39
40
41
43
42
44
45
46
49
47
48
53
54
55
56
82
81
80
79
57
58
78
86
87
77
59
60
61
76
75
62
32
31
30
28
26
27
29
63
73
74
64
25
23
24
22
21
20
19
18
68
67
66
65
72
88
89
90
71
70
69
91
102
92
93
94
100
95
96
97
98
99
128
130
131
132
133
129
127
126
124
125
123
101
122
121
119
118
116
120
117
115
103
114
113
104
105
106
107
108
109
110
111
112
146
144
147
148
145
185
190
224
223
222
221
220
219
218
217
241
240
239
238
237
236
235
234
233
272
271
270
269
268
267
266
265
264
263
262
261
260
242
243
244
245
246
247
248
249
250
210
211
212
213
214
215
216
198
197
196
195
194
193
191
184
192
183
182
181
180
179
178
177
199
200
201
202
176
175
161
160
159
158
157
156
155
154
153
151
150
143
152
142
141
140
139
138
137
136
135
134
162
163
164
165
167
166
169
168
170
171
172
173
174
204
203
205
206
207
208
209
251
253
252
255
254
316
315
256
257
258
259
314
313
312
311
310
309
308
307
306
305
304
303
302
301
273
274
275
276
277
278
279
294
295
296
297
298
299
300
332
330
331
329
328
327
326
325
324
323
322
321
320
319
318
317
402
404
405
417
418
428
429
431
416
415
400
401
388
387
386
385
378
368
367
